797872
0,71,62,31,117,70,139,48,66,38,206,146,126,162,177,30,198,97,50,176,225,68,22,158,121,151,190,41,159,112,72,208,125,69,85,118,192,194,83,94,78,166,84,187,180,135,205,217,123,130,172,147,122,24,79,131,60,181,56,75,173,163,213,45,124,226,18,133,110,47,224,46,16,175,222,12,219,43,63,4,155,210,144,143,25,90,95,165,100,183,115,160,106,195,178,191,36,33,204,74,214,77,54,129,80,39,168,26,61,101,27,49,150,107,93,34,86,88,8,67,21,29,153,64,199,197,9,200,109,13,164,193,96,119,7,14,137,2,207,184,188,15,59,136,10,142,196,138,57,58,220,51,212,92,167,171,203,1,114,148,81,157,179,120,76,221,40,127,105,140,218,65,189,98,201,104,215,99,52,91,174,53,17,55,23,44,229,211,103,202,37,223,32,128,152,227,108,89,170,185,149,169,141,87,216,20,3,145,11,186,102,5,28,113,42,73,156,82,134,161,6,209,182,19,116,35,228,132,111,154,0